coords = array2d(1..20, 1..2, [143, 453, 278, 88, 97, 813, 700, 868, 918, 802,
    431, 106, 208, 394, 181, 912, 216, 462, 435, 77, 610, 807, 980,
    850, 808, 452, 175, 535, 667, 210, 885, 224, 517, 352, 115, 295,
    273, 336, 836, 874]);

n = 20;

